Route #1: 46 12 47 18 25 14
Route #2: 6 24 43 23 7 26 8 31 28 22 1 32
Route #3: 5 38 49 10 39 30 9 50 16 2
Route #4: 17 37 15 33 45 44 42 19 40 41 13 4
Route #5: 11 34 21 29 20 35 36 3 48 27
Cost 562
